80 3160
1 2 200
1 3 140
1 4 133
1 5 119
1 6 128
1 7 156
1 8 155
1 9 199
1 10 203
1 11 85
1 12 118
1 13 175
1 14 221
1 15 17
1 16 237
1 17 159
1 18 23
1 19 160
1 20 62
1 21 10
1 22 143
1 23 196
1 24 105
1 25 39
1 26 37
1 27 19
1 28 44
1 29 205
1 30 188
1 31 157
1 32 79
1 33 102
1 34 15
1 35 56
1 36 114
1 37 177
1 38 1
1 39 159
1 40 96
1 41 85
1 42 154
1 43 162
1 44 75
1 45 50
1 46 193
1 47 232
1 48 53
1 49 198
1 50 41
1 51 162
1 52 168
1 53 22
1 54 191
1 55 104
1 56 207
1 57 56
1 58 156
1 59 99
1 60 4
1 61 7
1 62 66
1 63 170
1 64 224
1 65 229
1 66 135
1 67 24
1 68 229
1 69 188
1 70 45
1 71 83
1 72 177
1 73 104
1 74 119
1 75 53
1 76 29
1 77 76
1 78 88
1 79 110
1 80 126
2 3 76
2 4 33
2 5 130
2 6 216
2 7 236
2 8 42
2 9 81
2 10 51
2 11 62
2 12 151
2 13 221
2 14 226
2 15 87
2 16 18
2 17 90
2 18 90
2 19 16
2 20 205
2 21 90
2 22 160
2 23 119
2 24 70
2 25 4
2 26 28
2 27 84
2 28 163
2 29 103
2 30 28
2 31 69
2 32 182
2 33 192
2 34 73
2 35 112
2 36 84
2 37 184
2 38 46
2 39 166
2 40 35
2 41 14
2 42 82
2 43 231
2 44 220
2 45 90
2 46 180
2 47 210
2 48 114
2 49 169
2 50 227
2 51 35
2 52 195
2 53 229
2 54 108
2 55 147
2 56 207
2 57 208
2 58 123
2 59 235
2 60 160
2 61 54
2 62 161
2 63 34
2 64 114
2 65 33
2 66 28
2 67 100
2 68 215
2 69 60
2 70 136
2 71 103
2 72 10
2 73 234
2 74 203
2 75 171
2 76 77
2 77 61
2 78 226
2 79 108
2 80 207
3 4 85
3 5 76
3 6 63
3 7 195
3 8 172
3 9 188
3 10 27
3 11 125
3 12 120
3 13 169
3 14 212
3 15 116
3 16 212
3 17 62
3 18 219
3 19 113
3 20 0
3 21 68
3 22 141
3 23 231
3 24 104
3 25 133
3 26 187
3 27 3
3 28 112
3 29 180
3 30 48
3 31 139
3 32 65
3 33 105
3 34 74
3 35 68
3 36 37
3 37 27
3 38 235
3 39 212
3 40 27
3 41 72
3 42 147
3 43 107
3 44 223
3 45 57
3 46 159
3 47 17
3 48 123
3 49 237
3 50 227
3 51 117
3 52 17
3 53 70
3 54 199
3 55 48
3 56 25
3 57 159
3 58 108
3 59 167
3 60 88
3 61 35
3 62 170
3 63 68
3 64 153
3 65 57
3 66 138
3 67 175
3 68 34
3 69 113
3 70 43
3 71 34
3 72 196
3 73 66
3 74 208
3 75 104
3 76 205
3 77 17
3 78 23
3 79 60
3 80 181
4 5 40
4 6 107
4 7 10
4 8 182
4 9 198
4 10 183
4 11 237
4 12 95
4 13 89
4 14 4
4 15 213
4 16 96
4 17 46
4 18 139
4 19 137
4 20 26
4 21 62
4 22 196
4 23 224
4 24 115
4 25 59
4 26 70
4 27 107
4 28 130
4 29 140
4 30 196
4 31 193
4 32 136
4 33 134
4 34 133
4 35 90
4 36 82
4 37 161
4 38 171
4 39 217
4 40 53
4 41 221
4 42 173
4 43 5
4 44 162
4 45 113
4 46 22
4 47 32
4 48 0
4 49 236
4 50 108
4 51 78
4 52 195
4 53 205
4 54 88
4 55 221
4 56 179
4 57 218
4 58 120
4 59 39
4 60 128
4 61 150
4 62 144
4 63 59
4 64 165
4 65 36
4 66 176
4 67 123
4 68 84
4 69 154
4 70 62
4 71 26
4 72 183
4 73 235
4 74 8
4 75 107
4 76 215
4 77 221
4 78 17
4 79 184
4 80 212
5 6 195
5 7 220
5 8 222
5 9 163
5 10 177
5 11 232
5 12 121
5 13 147
5 14 117
5 15 11
5 16 32
5 17 203
5 18 203
5 19 87
5 20 72
5 21 186
5 22 39
5 23 70
5 24 147
5 25 93
5 26 179
5 27 75
5 28 152
5 29 81
5 30 229
5 31 49
5 32 101
5 33 71
5 34 42
5 35 231
5 36 20
5 37 161
5 38 194
5 39 209
5 40 14
5 41 134
5 42 183
5 43 155
5 44 164
5 45 50
5 46 222
5 47 17
5 48 155
5 49 162
5 50 169
5 51 50
5 52 187
5 53 30
5 54 100
5 55 87
5 56 199
5 57 107
5 58 30
5 59 101
5 60 137
5 61 7
5 62 7
5 63 205
5 64 31
5 65 145
5 66 141
5 67 153
5 68 45
5 69 212
5 70 213
5 71 170
5 72 173
5 73 87
5 74 132
5 75 178
5 76 56
5 77 94
5 78 177
5 79 154
5 80 75
6 7 36
6 8 3
6 9 15
6 10 98
6 11 92
6 12 155
6 13 81
6 14 132
6 15 99
6 16 39
6 17 91
6 18 193
6 19 31
6 20 122
6 21 61
6 22 138
6 23 3
6 24 88
6 25 150
6 26 31
6 27 95
6 28 119
6 29 23
6 30 183
6 31 79
6 32 7
6 33 109
6 34 29
6 35 213
6 36 52
6 37 215
6 38 0
6 39 151
6 40 197
6 41 176
6 42 22
6 43 217
6 44 212
6 45 37
6 46 181
6 47 127
6 48 96
6 49 12
6 50 205
6 51 113
6 52 121
6 53 1
6 54 50
6 55 227
6 56 232
6 57 165
6 58 99
6 59 181
6 60 227
6 61 166
6 62 80
6 63 137
6 64 177
6 65 214
6 66 166
6 67 220
6 68 138
6 69 15
6 70 164
6 71 170
6 72 26
6 73 85
6 74 86
6 75 101
6 76 79
6 77 164
6 78 60
6 79 107
6 80 186
7 8 185
7 9 109
7 10 175
7 11 129
7 12 139
7 13 230
7 14 235
7 15 106
7 16 114
7 17 46
7 18 166
7 19 187
7 20 59
7 21 226
7 22 206
7 23 182
7 24 118
7 25 163
7 26 108
7 27 116
7 28 15
7 29 69
7 30 123
7 31 165
7 32 6
7 33 200
7 34 207
7 35 143
7 36 49
7 37 159
7 38 225
7 39 202
7 40 142
7 41 208
7 42 236
7 43 146
7 44 217
7 45 186
7 46 239
7 47 65
7 48 169
7 49 127
7 50 158
7 51 189
7 52 215
7 53 200
7 54 122
7 55 38
7 56 231
7 57 69
7 58 137
7 59 24
7 60 139
7 61 46
7 62 230
7 63 0
7 64 3
7 65 84
7 66 176
7 67 227
7 68 30
7 69 220
7 70 162
7 71 107
7 72 209
7 73 134
7 74 107
7 75 146
7 76 221
7 77 108
7 78 46
7 79 106
7 80 222
8 9 19
8 10 150
8 11 225
8 12 167
8 13 173
8 14 201
8 15 46
8 16 223
8 17 123
8 18 185
8 19 189
8 20 36
8 21 131
8 22 97
8 23 184
8 24 4
8 25 182
8 26 162
8 27 87
8 28 235
8 29 109
8 30 127
8 31 163
8 32 76
8 33 170
8 34 130
8 35 138
8 36 165
8 37 167
8 38 72
8 39 16
8 40 219
8 41 111
8 42 159
8 43 192
8 44 184
8 45 170
8 46 42
8 47 35
8 48 93
8 49 101
8 50 130
8 51 47
8 52 222
8 53 157
8 54 238
8 55 207
8 56 159
8 57 93
8 58 168
8 59 129
8 60 101
8 61 22
8 62 148
8 63 24
8 64 140
8 65 192
8 66 102
8 67 74
8 68 77
8 69 216
8 70 35
8 71 235
8 72 178
8 73 105
8 74 95
8 75 57
8 76 217
8 77 101
8 78 203
8 79 111
8 80 142
9 10 86
9 11 174
9 12 199
9 13 174
9 14 140
9 15 36
9 16 27
9 17 28
9 18 238
9 19 61
9 20 21
9 21 171
9 22 33
9 23 45
9 24 110
9 25 65
9 26 98
9 27 202
9 28 29
9 29 203
9 30 199
9 31 96
9 32 11
9 33 181
9 34 129
9 35 212
9 36 201
9 37 220
9 38 18
9 39 224
9 40 146
9 41 159
9 42 207
9 43 197
9 44 204
9 45 5
9 46 137
9 47 190
9 48 160
9 49 150
9 50 2
9 51 201
9 52 13
9 53 5
9 54 30
9 55 220
9 56 183
9 57 91
9 58 138
9 59 73
9 60 57
9 61 70
9 62 200
9 63 154
9 64 221
9 65 176
9 66 196
9 67 130
9 68 156
9 69 111
9 70 162
9 71 138
9 72 194
9 73 71
9 74 208
9 75 43
9 76 197
9 77 196
9 78 182
9 79 74
9 80 86
10 11 123
10 12 12
10 13 173
10 14 25
10 15 76
10 16 64
10 17 67
10 18 23
10 19 234
10 20 128
10 21 168
10 22 15
10 23 181
10 24 30
10 25 23
10 26 72
10 27 89
10 28 64
10 29 8
10 30 9
10 31 109
10 32 153
10 33 195
10 34 93
10 35 10
10 36 68
10 37 105
10 38 45
10 39 113
10 40 149
10 41 39
10 42 89
10 43 238
10 44 149
10 45 138
10 46 159
10 47 218
10 48 4
10 49 163
10 50 217
10 51 97
10 52 175
10 53 95
10 54 29
10 55 62
10 56 160
10 57 39
10 58 173
10 59 55
10 60 220
10 61 5
10 62 30
10 63 75
10 64 119
10 65 229
10 66 153
10 67 154
10 68 217
10 69 9
10 70 171
10 71 187
10 72 74
10 73 22
10 74 89
10 75 80
10 76 89
10 77 143
10 78 80
10 79 171
10 80 14
11 12 66
11 13 135
11 14 145
11 15 166
11 16 214
11 17 121
11 18 91
11 19 141
11 20 19
11 21 235
11 22 22
11 23 217
11 24 37
11 25 135
11 26 122
11 27 150
11 28 233
11 29 210
11 30 211
11 31 33
11 32 134
11 33 15
11 34 57
11 35 86
11 36 235
11 37 219
11 38 208
11 39 144
11 40 61
11 41 156
11 42 176
11 43 119
11 44 161
11 45 179
11 46 59
11 47 45
11 48 143
11 49 84
11 50 189
11 51 151
11 52 98
11 53 234
11 54 164
11 55 28
11 56 68
11 57 140
11 58 186
11 59 42
11 60 187
11 61 59
11 62 115
11 63 34
11 64 96
11 65 34
11 66 230
11 67 98
11 68 198
11 69 61
11 70 200
11 71 19
11 72 74
11 73 81
11 74 150
11 75 65
11 76 16
11 77 66
11 78 178
11 79 214
11 80 218
12 13 128
12 14 145
12 15 22
12 16 22
12 17 162
12 18 42
12 19 208
12 20 191
12 21 39
12 22 69
12 23 62
12 24 0
12 25 115
12 26 2
12 27 173
12 28 163
12 29 75
12 30 39
12 31 117
12 32 207
12 33 83
12 34 107
12 35 227
12 36 32
12 37 113
12 38 236
12 39 155
12 40 234
12 41 55
12 42 151
12 43 127
12 44 7
12 45 123
12 46 93
12 47 98
12 48 232
12 49 208
12 50 97
12 51 25
12 52 71
12 53 183
12 54 209
12 55 35
12 56 182
12 57 139
12 58 52
12 59 96
12 60 53
12 61 61
12 62 16
12 63 110
12 64 216
12 65 201
12 66 187
12 67 56
12 68 135
12 69 8
12 70 17
12 71 26
12 72 26
12 73 12
12 74 92
12 75 177
12 76 72
12 77 42
12 78 24
12 79 200
12 80 88
13 14 208
13 15 122
13 16 235
13 17 71
13 18 170
13 19 7
13 20 219
13 21 89
13 22 96
13 23 41
13 24 146
13 25 39
13 26 195
13 27 163
13 28 153
13 29 108
13 30 143
13 31 39
13 32 126
13 33 91
13 34 53
13 35 39
13 36 224
13 37 65
13 38 150
13 39 216
13 40 165
13 41 5
13 42 224
13 43 234
13 44 84
13 45 127
13 46 154
13 47 181
13 48 182
13 49 118
13 50 224
13 51 102
13 52 9
13 53 152
13 54 172
13 55 52
13 56 131
13 57 99
13 58 13
13 59 152
13 60 45
13 61 146
13 62 57
13 63 219
13 64 80
13 65 83
13 66 222
13 67 118
13 68 21
13 69 6
13 70 150
13 71 207
13 72 74
13 73 199
13 74 237
13 75 18
13 76 161
13 77 71
13 78 35
13 79 113
13 80 111
14 15 40
14 16 92
14 17 234
14 18 139
14 19 19
14 20 152
14 21 75
14 22 73
14 23 70
14 24 123
14 25 118
14 26 110
14 27 56
14 28 124
14 29 230
14 30 19
14 31 119
14 32 187
14 33 56
14 34 157
14 35 39
14 36 205
14 37 20
14 38 135
14 39 131
14 40 201
14 41 48
14 42 102
14 43 214
14 44 191
14 45 157
14 46 188
14 47 34
14 48 216
14 49 123
14 50 31
14 51 127
14 52 202
14 53 50
14 54 172
14 55 107
14 56 203
14 57 36
14 58 124
14 59 11
14 60 72
14 61 172
14 62 19
14 63 200
14 64 106
14 65 23
14 66 143
14 67 13
14 68 197
14 69 81
14 70 26
14 71 208
14 72 149
14 73 210
14 74 110
14 75 152
14 76 172
14 77 59
14 78 98
14 79 99
14 80 105
15 16 216
15 17 118
15 18 175
15 19 115
15 20 11
15 21 39
15 22 148
15 23 233
15 24 23
15 25 63
15 26 172
15 27 40
15 28 202
15 29 57
15 30 155
15 31 234
15 32 18
15 33 134
15 34 148
15 35 84
15 36 146
15 37 144
15 38 229
15 39 1
15 40 6
15 41 13
15 42 187
15 43 188
15 44 118
15 45 204
15 46 73
15 47 110
15 48 164
15 49 229
15 50 64
15 51 181
15 52 133
15 53 48
15 54 224
15 55 90
15 56 131
15 57 217
15 58 166
15 59 104
15 60 216
15 61 59
15 62 11
15 63 189
15 64 201
15 65 11
15 66 225
15 67 4
15 68 47
15 69 112
15 70 151
15 71 166
15 72 102
15 73 109
15 74 181
15 75 176
15 76 111
15 77 7
15 78 160
15 79 76
15 80 73
16 17 17
16 18 72
16 19 24
16 20 133
16 21 66
16 22 56
16 23 43
16 24 234
16 25 231
16 26 166
16 27 64
16 28 13
16 29 66
16 30 99
16 31 224
16 32 34
16 33 112
16 34 163
16 35 10
16 36 201
16 37 63
16 38 191
16 39 107
16 40 176
16 41 141
16 42 86
16 43 204
16 44 141
16 45 60
16 46 4
16 47 65
16 48 166
16 49 131
16 50 216
16 51 76
16 52 70
16 53 89
16 54 87
16 55 199
16 56 203
16 57 173
16 58 150
16 59 156
16 60 111
16 61 87
16 62 207
16 63 132
16 64 187
16 65 216
16 66 134
16 67 56
16 68 65
16 69 5
16 70 239
16 71 230
16 72 55
16 73 204
16 74 20
16 75 106
16 76 28
16 77 186
16 78 13
16 79 137
16 80 206
17 18 68
17 19 158
17 20 162
17 21 81
17 22 79
17 23 98
17 24 105
17 25 13
17 26 38
17 27 149
17 28 106
17 29 129
17 30 41
17 31 117
17 32 228
17 33 83
17 34 30
17 35 197
17 36 180
17 37 179
17 38 225
17 39 117
17 40 106
17 41 22
17 42 58
17 43 148
17 44 115
17 45 142
17 46 104
17 47 47
17 48 180
17 49 142
17 50 182
17 51 57
17 52 152
17 53 172
17 54 122
17 55 88
17 56 98
17 57 172
17 58 223
17 59 31
17 60 45
17 61 108
17 62 100
17 63 35
17 64 56
17 65 30
17 66 95
17 67 82
17 68 222
17 69 36
17 70 16
17 71 149
17 72 191
17 73 79
17 74 60
17 75 187
17 76 8
17 77 26
17 78 199
17 79 163
17 80 135
18 19 3
18 20 230
18 21 67
18 22 199
18 23 88
18 24 75
18 25 22
18 26 49
18 27 177
18 28 50
18 29 62
18 30 24
18 31 205
18 32 162
18 33 85
18 34 4
18 35 174
18 36 238
18 37 213
18 38 121
18 39 233
18 40 145
18 41 44
18 42 155
18 43 214
18 44 83
18 45 147
18 46 93
18 47 97
18 48 154
18 49 181
18 50 138
18 51 134
18 52 183
18 53 227
18 54 162
18 55 181
18 56 202
18 57 225
18 58 191
18 59 1
18 60 118
18 61 199
18 62 96
18 63 166
18 64 91
18 65 76
18 66 156
18 67 89
18 68 54
18 69 87
18 70 239
18 71 16
18 72 230
18 73 34
18 74 215
18 75 167
18 76 46
18 77 134
18 78 129
18 79 41
18 80 19
19 20 66
19 21 223
19 22 75
19 23 165
19 24 229
19 25 173
19 26 82
19 27 129
19 28 29
19 29 144
19 30 19
19 31 12
19 32 165
19 33 56
19 34 142
19 35 199
19 36 121
19 37 214
19 38 69
19 39 143
19 40 44
19 41 77
19 42 127
19 43 41
19 44 63
19 45 28
19 46 198
19 47 61
19 48 110
19 49 183
19 50 105
19 51 17
19 52 202
19 53 130
19 54 142
19 55 149
19 56 211
19 57 112
19 58 160
19 59 194
19 60 219
19 61 32
19 62 109
19 63 36
19 64 70
19 65 188
19 66 153
19 67 176
19 68 8
19 69 82
19 70 207
19 71 235
19 72 33
19 73 68
19 74 21
19 75 230
19 76 130
19 77 205
19 78 219
19 79 210
19 80 185
20 21 78
20 22 50
20 23 170
20 24 57
20 25 60
20 26 84
20 27 59
20 28 112
20 29 72
20 30 205
20 31 158
20 32 104
20 33 203
20 34 169
20 35 66
20 36 140
20 37 75
20 38 103
20 39 63
20 40 229
20 41 207
20 42 116
20 43 111
20 44 92
20 45 97
20 46 63
20 47 86
20 48 29
20 49 150
20 50 202
20 51 50
20 52 13
20 53 132
20 54 88
20 55 55
20 56 26
20 57 178
20 58 103
20 59 183
20 60 143
20 61 31
20 62 129
20 63 138
20 64 107
20 65 133
20 66 136
20 67 21
20 68 220
20 69 59
20 70 174
20 71 139
20 72 112
20 73 19
20 74 42
20 75 72
20 76 151
20 77 228
20 78 58
20 79 224
20 80 67
21 22 34
21 23 73
21 24 122
21 25 200
21 26 215
21 27 67
21 28 193
21 29 219
21 30 60
21 31 80
21 32 33
21 33 186
21 34 102
21 35 207
21 36 31
21 37 40
21 38 238
21 39 172
21 40 239
21 41 188
21 42 173
21 43 177
21 44 61
21 45 113
21 46 57
21 47 163
21 48 235
21 49 67
21 50 42
21 51 44
21 52 9
21 53 61
21 54 123
21 55 183
21 56 133
21 57 103
21 58 180
21 59 175
21 60 106
21 61 219
21 62 51
21 63 123
21 64 89
21 65 154
21 66 72
21 67 178
21 68 227
21 69 211
21 70 83
21 71 146
21 72 52
21 73 207
21 74 64
21 75 68
21 76 224
21 77 188
21 78 131
21 79 82
21 80 110
22 23 180
22 24 108
22 25 8
22 26 200
22 27 198
22 28 114
22 29 62
22 30 220
22 31 52
22 32 131
22 33 18
22 34 211
22 35 160
22 36 84
22 37 145
22 38 70
22 39 67
22 40 43
22 41 31
22 42 218
22 43 111
22 44 126
22 45 185
22 46 78
22 47 223
22 48 178
22 49 178
22 50 159
22 51 88
22 52 35
22 53 36
22 54 58
22 55 15
22 56 74
22 57 40
22 58 80
22 59 23
22 60 32
22 61 129
22 62 33
22 63 67
22 64 74
22 65 230
22 66 18
22 67 212
22 68 78
22 69 216
22 70 147
22 71 156
22 72 17
22 73 178
22 74 149
22 75 121
22 76 219
22 77 42
22 78 135
22 79 41
22 80 137
23 24 215
23 25 12
23 26 65
23 27 182
23 28 132
23 29 96
23 30 59
23 31 102
23 32 39
23 33 50
23 34 106
23 35 164
23 36 140
23 37 216
23 38 153
23 39 48
23 40 96
23 41 78
23 42 85
23 43 191
23 44 105
23 45 51
23 46 32
23 47 224
23 48 224
23 49 122
23 50 46
23 51 64
23 52 174
23 53 130
23 54 51
23 55 197
23 56 151
23 57 48
23 58 232
23 59 155
23 60 160
23 61 75
23 62 201
23 63 161
23 64 45
23 65 76
23 66 198
23 67 65
23 68 109
23 69 98
23 70 5
23 71 15
23 72 62
23 73 186
23 74 206
23 75 213
23 76 157
23 77 115
23 78 164
23 79 35
23 80 166
24 25 215
24 26 26
24 27 52
24 28 69
24 29 120
24 30 150
24 31 171
24 32 198
24 33 151
24 34 56
24 35 65
24 36 237
24 37 229
24 38 194
24 39 9
24 40 3
24 41 227
24 42 164
24 43 0
24 44 171
24 45 236
24 46 183
24 47 141
24 48 49
24 49 13
24 50 164
24 51 178
24 52 140
24 53 7
24 54 140
24 55 32
24 56 40
24 57 83
24 58 15
24 59 79
24 60 20
24 61 115
24 62 174
24 63 234
24 64 208
24 65 85
24 66 195
24 67 2
24 68 137
24 69 50
24 70 232
24 71 193
24 72 86
24 73 239
24 74 222
24 75 55
24 76 54
24 77 212
24 78 202
24 79 226
24 80 172
25 26 148
25 27 74
25 28 146
25 29 21
25 30 158
25 31 149
25 32 141
25 33 33
25 34 123
25 35 168
25 36 146
25 37 78
25 38 233
25 39 155
25 40 23
25 41 160
25 42 88
25 43 91
25 44 188
25 45 139
25 46 89
25 47 58
25 48 59
25 49 234
25 50 121
25 51 114
25 52 36
25 53 163
25 54 183
25 55 48
25 56 212
25 57 153
25 58 169
25 59 162
25 60 9
25 61 182
25 62 42
25 63 118
25 64 0
25 65 58
25 66 29
25 67 50
25 68 56
25 69 4
25 70 192
25 71 221
25 72 121
25 73 98
25 74 204
25 75 203
25 76 226
25 77 32
25 78 178
25 79 151
25 80 189
26 27 65
26 28 174
26 29 97
26 30 210
26 31 106
26 32 25
26 33 63
26 34 236
26 35 37
26 36 158
26 37 49
26 38 218
26 39 200
26 40 102
26 41 179
26 42 63
26 43 232
26 44 125
26 45 89
26 46 237
26 47 235
26 48 234
26 49 168
26 50 234
26 51 2
26 52 205
26 53 71
26 54 57
26 55 161
26 56 2
26 57 178
26 58 142
26 59 129
26 60 63
26 61 151
26 62 208
26 63 112
26 64 142
26 65 91
26 66 55
26 67 116
26 68 207
26 69 63
26 70 67
26 71 32
26 72 169
26 73 162
26 74 74
26 75 181
26 76 183
26 77 113
26 78 9
26 79 211
26 80 112
27 28 238
27 29 29
27 30 126
27 31 147
27 32 225
27 33 80
27 34 54
27 35 52
27 36 118
27 37 72
27 38 60
27 39 204
27 40 210
27 41 151
27 42 184
27 43 184
27 44 198
27 45 129
27 46 173
27 47 109
27 48 144
27 49 228
27 50 32
27 51 108
27 52 198
27 53 25
27 54 156
27 55 202
27 56 5
27 57 123
27 58 86
27 59 174
27 60 192
27 61 156
27 62 101
27 63 144
27 64 102
27 65 116
27 66 9
27 67 121
27 68 101
27 69 159
27 70 208
27 71 172
27 72 125
27 73 226
27 74 198
27 75 134
27 76 218
27 77 181
27 78 159
27 79 73
27 80 186
28 29 194
28 30 71
28 31 178
28 32 203
28 33 84
28 34 126
28 35 36
28 36 153
28 37 181
28 38 145
28 39 29
28 40 229
28 41 185
28 42 176
28 43 205
28 44 101
28 45 155
28 46 108
28 47 194
28 48 32
28 49 186
28 50 132
28 51 154
28 52 179
28 53 70
28 54 220
28 55 69
28 56 230
28 57 77
28 58 152
28 59 174
28 60 25
28 61 89
28 62 185
28 63 131
28 64 101
28 65 157
28 66 32
28 67 95
28 68 119
28 69 213
28 70 126
28 71 151
28 72 115
28 73 80
28 74 12
28 75 205
28 76 171
28 77 154
28 78 214
28 79 193
28 80 169
29 30 112
29 31 190
29 32 90
29 33 86
29 34 130
29 35 3
29 36 204
29 37 87
29 38 82
29 39 73
29 40 118
29 41 94
29 42 142
29 43 56
29 44 222
29 45 10
29 46 184
29 47 114
29 48 228
29 49 73
29 50 159
29 51 191
29 52 7
29 53 154
29 54 174
29 55 11
29 56 151
29 57 160
29 58 78
29 59 14
29 60 49
29 61 92
29 62 165
29 63 146
29 64 17
29 65 47
29 66 81
29 67 175
29 68 143
29 69 63
29 70 34
29 71 104
29 72 81
29 73 122
29 74 30
29 75 109
29 76 223
29 77 191
29 78 50
29 79 36
29 80 43
30 31 148
30 32 6
30 33 196
30 34 35
30 35 174
30 36 50
30 37 183
30 38 174
30 39 220
30 40 201
30 41 112
30 42 207
30 43 74
30 44 55
30 45 165
30 46 25
30 47 20
30 48 223
30 49 239
30 50 22
30 51 48
30 52 146
30 53 40
30 54 132
30 55 213
30 56 105
30 57 174
30 58 199
30 59 82
30 60 112
30 61 151
30 62 15
30 63 210
30 64 79
30 65 204
30 66 6
30 67 177
30 68 123
30 69 163
30 70 233
30 71 6
30 72 152
30 73 142
30 74 8
30 75 216
30 76 191
30 77 40
30 78 238
30 79 108
30 80 219
31 32 155
31 33 226
31 34 65
31 35 97
31 36 22
31 37 92
31 38 170
31 39 176
31 40 37
31 41 173
31 42 233
31 43 199
31 44 88
31 45 127
31 46 105
31 47 171
31 48 70
31 49 220
31 50 196
31 51 216
31 52 194
31 53 132
31 54 234
31 55 66
31 56 4
31 57 91
31 58 84
31 59 87
31 60 235
31 61 11
31 62 210
31 63 111
31 64 51
31 65 118
31 66 74
31 67 101
31 68 239
31 69 131
31 70 102
31 71 131
31 72 119
31 73 62
31 74 171
31 75 7
31 76 224
31 77 55
31 78 166
31 79 151
31 80 226
32 33 20
32 34 148
32 35 99
32 36 172
32 37 67
32 38 152
32 39 28
32 40 158
32 41 120
32 42 230
32 43 226
32 44 192
32 45 18
32 46 44
32 47 187
32 48 154
32 49 164
32 50 97
32 51 162
32 52 194
32 53 28
32 54 44
32 55 162
32 56 11
32 57 146
32 58 188
32 59 186
32 60 182
32 61 100
32 62 12
32 63 113
32 64 21
32 65 75
32 66 155
32 67 142
32 68 149
32 69 18
32 70 79
32 71 66
32 72 32
32 73 28
32 74 59
32 75 60
32 76 22
32 77 95
32 78 111
32 79 167
32 80 3
33 34 114
33 35 188
33 36 35
33 37 45
33 38 116
33 39 126
33 40 103
33 41 232
33 42 17
33 43 63
33 44 25
33 45 39
33 46 206
33 47 204
33 48 105
33 49 135
33 50 4
33 51 43
33 52 41
33 53 142
33 54 198
33 55 153
33 56 48
33 57 46
33 58 236
33 59 146
33 60 100
33 61 60
33 62 132
33 63 49
33 64 84
33 65 149
33 66 35
33 67 86
33 68 192
33 69 173
33 70 114
33 71 24
33 72 193
33 73 152
33 74 212
33 75 95
33 76 81
33 77 190
33 78 9
33 79 60
33 80 93
34 35 178
34 36 57
34 37 78
34 38 22
34 39 178
34 40 166
34 41 151
34 42 8
34 43 226
34 44 189
34 45 22
34 46 44
34 47 98
34 48 29
34 49 83
34 50 93
34 51 35
34 52 216
34 53 56
34 54 9
34 55 75
34 56 224
34 57 120
34 58 214
34 59 121
34 60 25
34 61 159
34 62 208
34 63 2
34 64 230
34 65 24
34 66 218
34 67 193
34 68 14
34 69 30
34 70 239
34 71 177
34 72 62
34 73 160
34 74 21
34 75 149
34 76 178
34 77 123
34 78 15
34 79 0
34 80 17
35 36 237
35 37 180
35 38 95
35 39 102
35 40 140
35 41 81
35 42 154
35 43 1
35 44 100
35 45 139
35 46 4
35 47 188
35 48 197
35 49 196
35 50 216
35 51 62
35 52 65
35 53 7
35 54 93
35 55 165
35 56 106
35 57 184
35 58 230
35 59 25
35 60 190
35 61 127
35 62 133
35 63 97
35 64 235
35 65 169
35 66 38
35 67 16
35 68 210
35 69 56
35 70 179
35 71 177
35 72 207
35 73 224
35 74 146
35 75 27
35 76 190
35 77 96
35 78 31
35 79 74
35 80 70
36 37 218
36 38 117
36 39 34
36 40 41
36 41 31
36 42 123
36 43 145
36 44 91
36 45 13
36 46 112
36 47 105
36 48 175
36 49 210
36 50 86
36 51 58
36 52 128
36 53 50
36 54 160
36 55 189
36 56 152
36 57 176
36 58 133
36 59 25
36 60 35
36 61 94
36 62 175
36 63 64
36 64 177
36 65 216
36 66 190
36 67 9
36 68 65
36 69 27
36 70 130
36 71 38
36 72 226
36 73 146
36 74 55
36 75 87
36 76 227
36 77 179
36 78 173
36 79 31
36 80 191
37 38 35
37 39 111
37 40 20
37 41 101
37 42 231
37 43 150
37 44 131
37 45 139
37 46 68
37 47 184
37 48 231
37 49 73
37 50 114
37 51 73
37 52 131
37 53 192
37 54 58
37 55 60
37 56 5
37 57 197
37 58 90
37 59 58
37 60 187
37 61 124
37 62 70
37 63 205
37 64 7
37 65 117
37 66 114
37 67 19
37 68 165
37 69 152
37 70 106
37 71 29
37 72 149
37 73 71
37 74 16
37 75 170
37 76 93
37 77 52
37 78 73
37 79 151
37 80 160
38 39 13
38 40 80
38 41 224
38 42 54
38 43 191
38 44 17
38 45 129
38 46 37
38 47 91
38 48 182
38 49 10
38 50 7
38 51 23
38 52 106
38 53 2
38 54 34
38 55 154
38 56 3
38 57 18
38 58 122
38 59 93
38 60 113
38 61 72
38 62 12
38 63 46
38 64 32
38 65 109
38 66 237
38 67 169
38 68 91
38 69 142
38 70 202
38 71 111
38 72 87
38 73 38
38 74 87
38 75 17
38 76 45
38 77 105
38 78 70
38 79 71
38 80 207
39 40 32
39 41 156
39 42 165
39 43 69
39 44 136
39 45 8
39 46 13
39 47 77
39 48 119
39 49 161
39 50 73
39 51 188
39 52 125
39 53 56
39 54 204
39 55 111
39 56 69
39 57 207
39 58 226
39 59 223
39 60 96
39 61 13
39 62 51
39 63 58
39 64 72
39 65 224
39 66 34
39 67 193
39 68 98
39 69 161
39 70 72
39 71 191
39 72 201
39 73 42
39 74 21
39 75 38
39 76 96
39 77 192
39 78 194
39 79 202
39 80 233
40 41 171
40 42 62
40 43 126
40 44 144
40 45 124
40 46 144
40 47 176
40 48 117
40 49 80
40 50 204
40 51 45
40 52 221
40 53 122
40 54 189
40 55 18
40 56 129
40 57 25
40 58 215
40 59 49
40 60 156
40 61 176
40 62 195
40 63 27
40 64 167
40 65 36
40 66 165
40 67 72
40 68 24
40 69 114
40 70 230
40 71 184
40 72 61
40 73 150
40 74 94
40 75 200
40 76 227
40 77 159
40 78 140
40 79 28
40 80 106
41 42 163
41 43 3
41 44 192
41 45 11
41 46 199
41 47 179
41 48 38
41 49 19
41 50 155
41 51 214
41 52 231
41 53 156
41 54 237
41 55 199
41 56 206
41 57 158
41 58 140
41 59 203
41 60 174
41 61 231
41 62 39
41 63 144
41 64 29
41 65 234
41 66 113
41 67 229
41 68 69
41 69 14
41 70 0
41 71 66
41 72 21
41 73 33
41 74 220
41 75 237
41 76 115
41 77 139
41 78 237
41 79 0
41 80 200
42 43 74
42 44 235
42 45 199
42 46 11
42 47 7
42 48 83
42 49 6
42 50 78
42 51 70
42 52 60
42 53 112
42 54 31
42 55 57
42 56 44
42 57 156
42 58 234
42 59 14
42 60 30
42 61 162
42 62 0
42 63 58
42 64 237
42 65 163
42 66 55
42 67 192
42 68 205
42 69 144
42 70 177
42 71 194
42 72 153
42 73 149
42 74 72
42 75 36
42 76 156
42 77 113
42 78 144
42 79 225
42 80 155
43 44 115
43 45 197
43 46 214
43 47 97
43 48 202
43 49 91
43 50 21
43 51 195
43 52 39
43 53 239
43 54 46
43 55 228
43 56 178
43 57 234
43 58 161
43 59 162
43 60 88
43 61 106
43 62 127
43 63 40
43 64 230
43 65 165
43 66 194
43 67 237
43 68 54
43 69 10
43 70 207
43 71 2
43 72 123
43 73 192
43 74 77
43 75 24
43 76 148
43 77 137
43 78 236
43 79 152
43 80 159
44 45 85
44 46 179
44 47 59
44 48 147
44 49 103
44 50 13
44 51 130
44 52 155
44 53 158
44 54 234
44 55 232
44 56 74
44 57 188
44 58 145
44 59 111
44 60 91
44 61 64
44 62 192
44 63 135
44 64 66
44 65 51
44 66 100
44 67 121
44 68 222
44 69 107
44 70 87
44 71 187
44 72 81
44 73 83
44 74 82
44 75 221
44 76 157
44 77 11
44 78 196
44 79 20
44 80 190
45 46 161
45 47 44
45 48 101
45 49 47
45 50 25
45 51 34
45 52 217
45 53 85
45 54 81
45 55 215
45 56 111
45 57 95
45 58 15
45 59 5
45 60 189
45 61 193
45 62 5
45 63 17
45 64 77
45 65 223
45 66 48
45 67 186
45 68 174
45 69 9
45 70 184
45 71 62
45 72 211
45 73 192
45 74 182
45 75 191
45 76 219
45 77 154
45 78 176
45 79 111
45 80 86
46 47 236
46 48 150
46 49 199
46 50 208
46 51 62
46 52 70
46 53 181
46 54 67
46 55 204
46 56 141
46 57 144
46 58 90
46 59 192
46 60 138
46 61 2
46 62 151
46 63 94
46 64 148
46 65 178
46 66 115
46 67 4
46 68 194
46 69 82
46 70 224
46 71 177
46 72 222
46 73 165
46 74 78
46 75 158
46 76 66
46 77 73
46 78 22
46 79 100
46 80 43
47 48 219
47 49 31
47 50 158
47 51 83
47 52 64
47 53 147
47 54 67
47 55 228
47 56 82
47 57 130
47 58 59
47 59 66
47 60 1
47 61 229
47 62 178
47 63 156
47 64 108
47 65 145
47 66 77
47 67 124
47 68 106
47 69 5
47 70 44
47 71 95
47 72 123
47 73 150
47 74 25
47 75 119
47 76 43
47 77 161
47 78 128
47 79 223
47 80 145
48 49 72
48 50 122
48 51 89
48 52 131
48 53 149
48 54 159
48 55 105
48 56 120
48 57 229
48 58 23
48 59 195
48 60 152
48 61 133
48 62 48
48 63 234
48 64 34
48 65 116
48 66 157
48 67 208
48 68 214
48 69 148
48 70 84
48 71 109
48 72 12
48 73 177
48 74 92
48 75 189
48 76 214
48 77 199
48 78 74
48 79 90
48 80 82
49 50 93
49 51 55
49 52 184
49 53 143
49 54 139
49 55 237
49 56 98
49 57 229
49 58 115
49 59 229
49 60 228
49 61 103
49 62 91
49 63 93
49 64 229
49 65 43
49 66 65
49 67 60
49 68 132
49 69 62
49 70 96
49 71 119
49 72 153
49 73 71
49 74 19
49 75 235
49 76 226
49 77 32
49 78 178
49 79 74
49 80 222
50 51 136
50 52 108
50 53 136
50 54 221
50 55 58
50 56 177
50 57 151
50 58 34
50 59 178
50 60 32
50 61 100
50 62 155
50 63 235
50 64 0
50 65 102
50 66 165
50 67 221
50 68 10
50 69 0
50 70 76
50 71 16
50 72 139
50 73 83
50 74 110
50 75 147
50 76 180
50 77 29
50 78 55
50 79 182
50 80 191
51 52 217
51 53 144
51 54 139
51 55 204
51 56 83
51 57 227
51 58 216
51 59 122
51 60 157
51 61 84
51 62 143
51 63 146
51 64 16
51 65 210
51 66 23
51 67 43
51 68 196
51 69 216
51 70 216
51 71 31
51 72 131
51 73 153
51 74 128
51 75 144
51 76 141
51 77 64
51 78 217
51 79 143
51 80 142
52 53 210
52 54 192
52 55 69
52 56 191
52 57 217
52 58 208
52 59 171
52 60 59
52 61 88
52 62 22
52 63 234
52 64 57
52 65 214
52 66 117
52 67 58
52 68 154
52 69 46
52 70 178
52 71 228
52 72 26
52 73 68
52 74 106
52 75 76
52 76 79
52 77 182
52 78 231
52 79 41
52 80 187
53 54 165
53 55 29
53 56 156
53 57 64
53 58 226
53 59 38
53 60 52
53 61 17
53 62 45
53 63 100
53 64 69
53 65 211
53 66 77
53 67 39
53 68 62
53 69 182
53 70 116
53 71 130
53 72 184
53 73 126
53 74 171
53 75 207
53 76 54
53 77 180
53 78 65
53 79 175
53 80 30
54 55 212
54 56 113
54 57 124
54 58 189
54 59 22
54 60 201
54 61 160
54 62 64
54 63 229
54 64 170
54 65 166
54 66 228
54 67 0
54 68 171
54 69 167
54 70 11
54 71 104
54 72 197
54 73 96
54 74 206
54 75 112
54 76 61
54 77 13
54 78 162
54 79 44
54 80 1
55 56 76
55 57 12
55 58 126
55 59 183
55 60 123
55 61 151
55 62 214
55 63 172
55 64 60
55 65 221
55 66 52
55 67 148
55 68 41
55 69 21
55 70 42
55 71 55
55 72 138
55 73 28
55 74 156
55 75 123
55 76 119
55 77 107
55 78 109
55 79 215
55 80 27
56 57 188
56 58 71
56 59 208
56 60 106
56 61 190
56 62 223
56 63 194
56 64 105
56 65 142
56 66 3
56 67 57
56 68 168
56 69 35
56 70 188
56 71 78
56 72 35
56 73 188
56 74 98
56 75 17
56 76 79
56 77 89
56 78 18
56 79 168
56 80 222
57 58 33
57 59 157
57 60 209
57 61 14
57 62 36
57 63 183
57 64 25
57 65 23
57 66 231
57 67 78
57 68 155
57 69 62
57 70 211
57 71 74
57 72 107
57 73 130
57 74 6
57 75 104
57 76 155
57 77 120
57 78 73
57 79 220
57 80 186
58 59 142
58 60 223
58 61 115
58 62 76
58 63 233
58 64 181
58 65 159
58 66 184
58 67 93
58 68 107
58 69 109
58 70 83
58 71 153
58 72 206
58 73 151
58 74 14
58 75 80
58 76 57
58 77 21
58 78 66
58 79 209
58 80 208
59 60 152
59 61 132
59 62 119
59 63 109
59 64 188
59 65 133
59 66 10
59 67 109
59 68 196
59 69 114
59 70 226
59 71 143
59 72 210
59 73 118
59 74 93
59 75 108
59 76 112
59 77 35
59 78 84
59 79 36
59 80 136
60 61 168
60 62 12
60 63 32
60 64 83
60 65 71
60 66 186
60 67 122
60 68 214
60 69 98
60 70 71
60 71 97
60 72 214
60 73 32
60 74 161
60 75 143
60 76 44
60 77 12
60 78 132
60 79 10
60 80 170
61 62 71
61 63 201
61 64 27
61 65 108
61 66 113
61 67 129
61 68 31
61 69 6
61 70 34
61 71 68
61 72 27
61 73 55
61 74 61
61 75 84
61 76 68
61 77 190
61 78 96
61 79 127
61 80 28
62 63 67
62 64 54
62 65 133
62 66 114
62 67 145
62 68 138
62 69 59
62 70 238
62 71 49
62 72 63
62 73 115
62 74 88
62 75 52
62 76 134
62 77 39
62 78 65
62 79 105
62 80 104
63 64 53
63 65 151
63 66 110
63 67 211
63 68 60
63 69 69
63 70 2
63 71 82
63 72 191
63 73 236
63 74 158
63 75 55
63 76 22
63 77 214
63 78 174
63 79 94
63 80 90
64 65 110
64 66 225
64 67 3
64 68 189
64 69 16
64 70 166
64 71 52
64 72 85
64 73 179
64 74 140
64 75 99
64 76 57
64 77 50
64 78 182
64 79 192
64 80 136
65 66 168
65 67 34
65 68 179
65 69 140
65 70 127
65 71 206
65 72 236
65 73 206
65 74 59
65 75 131
65 76 40
65 77 10
65 78 235
65 79 181
65 80 74
66 67 129
66 68 15
66 69 206
66 70 190
66 71 49
66 72 120
66 73 167
66 74 127
66 75 205
66 76 178
66 77 4
66 78 21
66 79 19
66 80 125
67 68 79
67 69 143
67 70 49
67 71 28
67 72 84
67 73 16
67 74 24
67 75 153
67 76 71
67 77 14
67 78 60
67 79 6
67 80 55
68 69 31
68 70 198
68 71 225
68 72 224
68 73 32
68 74 59
68 75 208
68 76 146
68 77 140
68 78 186
68 79 129
68 80 197
69 70 67
69 71 179
69 72 99
69 73 200
69 74 86
69 75 33
69 76 106
69 77 76
69 78 238
69 79 106
69 80 156
70 71 194
70 72 27
70 73 142
70 74 230
70 75 26
70 76 203
70 77 22
70 78 58
70 79 117
70 80 4
71 72 209
71 73 43
71 74 197
71 75 113
71 76 100
71 77 198
71 78 195
71 79 123
71 80 45
72 73 229
72 74 46
72 75 205
72 76 38
72 77 229
72 78 14
72 79 16
72 80 239
73 74 197
73 75 40
73 76 49
73 77 184
73 78 239
73 79 23
73 80 34
74 75 53
74 76 115
74 77 88
74 78 29
74 79 235
74 80 114
75 76 218
75 77 185
75 78 102
75 79 237
75 80 0
76 77 47
76 78 128
76 79 76
76 80 178
77 78 205
77 79 175
77 80 82
78 79 21
78 80 17
79 80 24
